CLP/out/Inst05.txt
[[0, 2, 65, 6, 10, 4, 3, 9, 5, 11, 8, 12, 7, 13, 1, 0],[0, 62, 43, 32, 29, 74, 24, 66, 33, 61, 0],[0, 112, 117, 80, 119, 102, 88, 63, 103, 110, 0],[0, 159, 123, 17, 163, 120, 152, 143, 142, 157, 0],[0, 166, 230, 226, 219, 185, 173, 176, 179, 36, 0],[0, 20, 23, 16, 30, 14, 15, 22, 21, 18, 19, 0],[0, 31, 39, 34, 35, 44, 25, 41, 26, 40, 27, 0],[0, 79, 72, 48, 28, 81, 47, 83, 67, 52, 75, 0],[0, 92, 101, 105, 85, 150, 89, 84, 107, 99, 91, 0],[0, 54, 136, 132, 109, 144, 125, 114, 153, 126, 129, 45, 0],[0, 165, 171, 168, 167, 188, 73, 216, 156, 192, 162, 0],[0, 209, 236, 51, 215, 198, 235, 193, 223, 211, 205, 0],[0, 46, 217, 204, 69, 182, 49, 212, 197, 55, 64, 228, 42, 0],[0, 77, 118, 181, 161, 194, 180, 184, 93, 186, 115, 95, 70, 0],[0, 78, 225, 189, 94, 220, 108, 213, 87, 218, 206, 200, 231, 68, 0],[0, 53, 172, 145, 124, 158, 106, 113, 58, 60, 151, 137, 116, 178, 37, 0],[0, 50, 203, 164, 169, 154, 155, 140, 147, 104, 201, 57, 170, 195, 208, 98, 38, 0],[0, 71, 222, 174, 128, 122, 187, 133, 175, 149, 134, 196, 160, 130, 214, 121, 90, 221, 148, 207, 100, 177, 135, 141, 238, 56, 0],[0, 76, 239, 97, 234, 190, 183, 82, 237, 96, 202, 210, 139, 229, 131, 127, 111, 224, 199, 233, 138, 232, 191, 146, 227, 86, 59, 0],[]]

Total distance = 18522
