MIP/out/inst05.out
['savings-mzt.py', 'inst05.png']
Heuristic solution: [[139, 140, 138, 171, 236, 42, 120, 167, 191, 126, 152, 169, 234, 69, 25, 97], [164, 178, 176, 109, 70, 46, 52, 110, 98, 76, 68, 47, 215, 229], [99, 179, 218, 122, 127, 233, 40, 216, 27, 2, 147, 232, 134, 130, 95, 7], [190, 222, 6, 195, 82, 226, 8, 45, 199, 41, 78, 93, 38, 89, 219, 31, 186], [22, 228, 209, 117, 16, 1, 200, 19, 180, 223, 94, 90, 65, 210], [91, 33, 131, 194, 75, 154, 51, 39, 129, 4, 211, 15, 158], [32, 12, 3, 145, 146, 118, 108, 175, 62, 136, 113, 87, 49, 174], [112, 185, 103, 53, 205, 107, 13, 156, 111, 10, 170], [92, 159, 220, 86, 58, 155, 88, 50, 71, 119, 67, 173], [60, 224, 96, 44, 104, 168, 184, 48, 114, 57, 21, 160, 84, 124], [37, 83, 181, 116, 172, 74, 192, 24, 73, 66, 206], [144, 163, 63, 23, 17, 196, 26, 237, 34, 239, 204, 14, 128, 208], [36, 54, 18, 238, 143, 72, 43, 123, 201, 221, 153, 56, 141], [59, 115, 231, 214, 125, 133, 61, 157, 193, 142, 81], [80, 177, 197, 135, 28, 230, 150, 149, 189, 11, 161], [183, 102, 217, 203, 55, 20, 235, 187, 29, 151], [212, 225, 121, 166, 5, 9, 100, 101, 35, 213], [85, 182, 137, 198, 77, 64, 202, 106, 207, 162, 30], [188, 227, 105, 148, 165, 79, 132]]
Heuristic val: 3578.0
19 <= 19 <= 20
200 <= 200
199 <= 200
199 <= 200
198 <= 200
197 <= 200
185 <= 185
185 <= 185
179 <= 180
179 <= 180
178 <= 180
178 <= 180
178 <= 180
177 <= 180
174 <= 175
170 <= 175
154 <= 160
154 <= 160
148 <= 160
103 <= 160
Set parameter Username
Academic license - for non-commercial use only - expires 2023-07-23
Set parameter TimeLimit to value 300
Waiting for optimizer...
Gurobi Optimizer version 9.5.2 build v9.5.2rc0 (linux64)
Thread count: 2 physical cores, 4 logical processors, using up to 4 threads
Optimize a model with 1318677 rows, 1099180 columns and 10181218 nonzeros
Model fingerprint: 0x2dcc3493
Variable types: 239 continuous, 1098941 integer (1098941 binary)
Coefficient statistics:
  Matrix range     [1e+00, 4e+03]
  Objective range  [1e+00, 3e+02]
  Bounds range     [1e+00, 4e+03]
  RHS range        [1e+00, 4e+03]

Warning: Completing partial solution with 1098683 unfixed non-continuous variables out of 1098941
User MIP start produced solution with objective 1836 (4.20s)
Loaded user MIP start with objective 1836
Processed MIP start in 4.21 seconds (2.53 work units)

Presolve removed 10062 rows and 4560 columns (presolve time = 5s) ...
Presolve removed 195559 rows and 4560 columns (presolve time = 10s) ...
Presolve removed 199861 rows and 4560 columns (presolve time = 15s) ...
Presolve removed 199861 rows and 4560 columns (presolve time = 20s) ...
Presolve removed 199861 rows and 4560 columns
Presolve time: 23.65s
Presolved: 1118816 rows, 1094620 columns, 6525656 nonzeros
Variable types: 239 continuous, 1094381 integer (1094381 binary)

Deterministic concurrent LP optimizer: dual simplex and barrier
Showing barrier log only...

Root barrier log...

Ordering time: 2.25s

Barrier statistics:
 AA' NZ     : 8.666e+05
 Factor NZ  : 3.477e+06 (roughly 160 MB of memory)
 Factor Ops : 4.595e+09 (less than 1 second per iteration)
 Threads    : 1

                  Objective                Residual
Iter       Primal          Dual         Primal    Dual     Compl     Time
   0   6.11845199e+07  0.00000000e+00  1.91e+02 0.00e+00  1.08e+02    40s
   1   1.28925496e+07 -1.42953214e+05  4.09e+01 4.55e-13  2.35e+01    41s
   2   1.58714475e+05 -5.18302121e+04  5.90e-01 3.24e-03  3.77e-01    41s
   3   3.42278202e+04 -1.71422244e+04  1.13e-01 9.58e-04  8.88e-02    41s
   4   6.70440231e+03 -2.44562995e+03  1.40e-02 4.55e-13  1.51e-02    42s
   5   2.21606382e+03 -2.24501253e+02  3.26e-03 4.55e-13  4.00e-03    42s
   6   8.61465187e+02  2.76619197e+02  5.09e-04 4.55e-13  9.60e-04    43s
   7   5.74504431e+02  5.58732105e+02  1.65e-06 4.55e-13  2.61e-05    43s
   8   5.66561834e+02  5.66486875e+02  2.41e-09 4.55e-13  1.24e-07    43s
   9   5.66500062e+02  5.66499987e+02  4.53e-12 4.55e-13  1.24e-10    44s
  10   5.66500000e+02  5.66500000e+02  3.61e-10 4.55e-13  1.24e-13    44s
  11   5.66500000e+02  5.66500000e+02  3.27e-13 4.55e-13  3.09e-17    44s

Barrier solved model in 11 iterations and 44.07 seconds (36.43 work units)
Optimal objective 5.66500000e+02


Root crossover log...

     234 DPushes remaining with DInf 0.0000000e+00                44s
       0 DPushes remaining with DInf 0.0000000e+00                44s

    1545 PPushes remaining with PInf 0.0000000e+00                44s
       0 PPushes remaining with PInf 0.0000000e+00                44s

  Push phase complete: Pinf 0.0000000e+00, Dinf 1.5417875e-12     44s


Root simplex log...

Iteration    Objective       Primal Inf.    Dual Inf.      Time
    1710    5.6650000e+02   0.000000e+00   0.000000e+00     44s
    1710    5.6650000e+02   0.000000e+00   0.000000e+00     44s

Use crossover to convert LP symmetric solution to basic solution...

Root crossover log...

    8284 DPushes remaining with DInf 0.0000000e+00                46s
Concurrent spin time: 0.03s

Solved with dual simplex

Root relaxation: objective 5.665000e+02, 14711 iterations, 15.31 seconds (9.61 work units)
Total elapsed time = 55.65s
Total elapsed time = 67.84s

    Nodes    |    Current Node    |     Objective Bounds      |     Work
 Expl Unexpl |  Obj  Depth IntInf | Incumbent    BestBd   Gap | It/Node Time

     0     0  566.50000    0  645 1836.00000  566.50000  69.1%     -   88s
     0     0          -    0      1836.00000  566.50000  69.1%     -  300s

Cutting planes:
  Gomory: 9
  Cover: 3
  Implied bound: 174
  Clique: 116
  MIR: 585
  StrongCG: 6
  Zero half: 16
  RLT: 219
  Relax-and-lift: 8
  BQP: 47
  PSD: 123

Explored 1 nodes (47404 simplex iterations) in 300.17 seconds (311.36 work units)
Thread count was 4 (of 4 available processors)

Solution count 1: 1836 

Time limit reached
Best objective 1.836000000000e+03, best bound 5.670000000000e+02, gap 69.1176%
Done waiting!
MIP improvement: [[0, 139, 140, 138, 171, 236, 42, 120, 167, 191, 126, 152, 169, 234, 69, 25, 97, 0], [0, 164, 178, 176, 109, 70, 46, 52, 110, 98, 76, 68, 47, 215, 229, 0], [0, 99, 179, 218, 122, 127, 233, 40, 216, 27, 2, 147, 232, 134, 130, 95, 7, 0], [0, 190, 222, 6, 195, 82, 226, 8, 45, 199, 41, 78, 93, 38, 89, 219, 31, 186, 0], [0, 22, 228, 209, 117, 16, 1, 200, 19, 180, 223, 94, 90, 65, 210, 0], [0, 91, 33, 131, 194, 75, 154, 51, 39, 129, 4, 211, 15, 158, 0], [0, 32, 12, 3, 145, 146, 118, 108, 175, 62, 136, 113, 87, 49, 174, 0], [0, 112, 185, 103, 53, 205, 107, 13, 156, 111, 10, 170, 0], [0, 92, 159, 220, 86, 58, 155, 88, 50, 71, 119, 67, 173, 0], [0, 60, 224, 96, 44, 104, 168, 184, 48, 114, 57, 21, 160, 84, 124, 0], [0, 37, 83, 181, 116, 172, 74, 192, 24, 73, 66, 206, 0], [0, 144, 163, 63, 23, 17, 196, 26, 237, 34, 239, 204, 14, 128, 208, 0], [0, 36, 54, 18, 238, 143, 72, 43, 123, 201, 221, 153, 56, 141, 0], [0, 59, 115, 231, 214, 125, 133, 61, 157, 193, 142, 81, 0], [0, 80, 177, 197, 135, 28, 230, 150, 149, 189, 11, 161, 0], [0, 183, 102, 217, 203, 55, 20, 235, 187, 29, 151, 0], [0, 212, 225, 121, 166, 5, 9, 100, 101, 35, 213, 0], [0, 85, 182, 137, 198, 77, 64, 202, 106, 207, 162, 30, 0], [0, 188, 227, 105, 148, 165, 79, 132, 0]]
MIP value: 3578
The solution could be better...
